543 5
10 10 10 10 10 

0 0 0 0 0 0 5 2 14 26 38 50 
0 0 0 0 0 0 2 3 4 
1 0 0 1 0 0 1 5 
10 0 0 7 0 0 1 5 
10 0 0 4 0 0 1 6 
9 0 0 5 0 0 1 7 
1 0 0 6 0 0 1 8 
7 0 0 7 0 0 2 10 9 
2 0 0 4 0 0 2 12 11 
2 0 0 3 0 0 1 11 
10 0 0 5 0 0 2 13 216 
8 0 0 8 0 0 1 13 
0 0 0 0 0 0 1 62 
0 0 0 0 0 0 2 15 16 
8 1 0 0 0 0 1 17 
10 8 0 0 0 0 1 17 
7 7 0 0 0 0 3 19 18 29 
6 3 0 0 0 0 2 24 20 
2 6 0 0 0 0 2 24 20 
3 5 0 0 0 0 1 21 
3 6 0 0 0 0 1 22 
3 5 0 0 0 0 1 23 
6 5 0 0 0 0 1 25 
7 4 0 0 0 0 1 25 
0 0 0 0 0 0 1 62 
0 0 0 0 0 0 4 27 30 31 442 
10 0 1 0 0 0 1 28 
8 0 5 0 0 0 1 29 
9 0 7 0 0 0 2 36 32 
5 0 6 0 0 0 2 36 34 
2 0 7 0 0 0 2 36 34 
6 0 7 0 0 0 1 33 
8 0 4 0 0 0 1 34 
1 0 3 0 0 0 1 35 
5 0 4 0 0 0 1 37 
9 0 6 0 0 0 1 37 
0 0 0 0 0 0 1 62 
0 0 0 0 0 0 3 39 40 48 
10 0 2 0 0 0 3 44 41 540 
2 0 4 0 0 0 1 41 
4 0 5 0 0 0 1 42 
9 0 6 0 0 0 1 43 
8 0 10 0 0 0 1 45 
8 0 7 0 0 0 1 45 
5 0 3 0 0 0 1 46 
1 0 3 0 0 0 1 47 
10 0 6 0 0 0 1 49 
2 0 4 0 0 0 1 49 
0 0 0 0 0 0 1 62 
0 0 0 0 0 0 2 51 54 
10 0 0 0 1 0 2 52 149 
6 0 0 0 8 0 1 53 
10 0 0 0 4 0 2 58 55 
8 0 0 0 3 0 3 60 58 56 
7 0 0 0 6 0 2 60 56 
9 0 0 0 8 0 1 57 
3 0 0 0 3 0 1 59 
1 0 0 0 6 0 1 59 
9 0 0 0 5 0 1 61 
6 0 0 0 6 0 1 61 
0 0 0 0 0 0 1 62 
0 0 0 0 0 0 5 63 105 117 159 201 
0 0 0 0 0 0 3 64 72 79 
10 0 2 1 1 2 1 65 
8 0 4 9 3 5 1 66 
1 0 3 3 1 3 1 67 
1 0 2 3 2 5 1 68 
3 0 6 3 4 3 2 77 69 
6 0 9 8 5 5 1 70 
7 0 5 8 5 6 2 71 147 
2 0 7 7 6 4 1 73 
5 0 5 3 8 5 1 73 
8 0 5 3 7 7 1 74 
5 0 8 4 6 3 1 75 
9 0 5 5 4 6 1 76 
6 0 4 5 4 4 2 90 78 
1 0 6 7 5 4 3 103 90 80 
9 0 3 6 7 2 2 103 80 
9 0 5 6 2 10 2 90 80 
10 0 3 3 5 6 2 93 81 
6 0 4 3 6 3 2 102 82 
6 0 2 2 5 7 1 83 
4 0 6 7 9 7 1 84 
6 0 6 6 3 3 1 85 
2 0 4 6 5 5 2 99 86 
2 0 5 6 9 5 3 101 100 87 
1 0 4 6 10 6 1 88 
1 0 3 2 5 3 1 89 
10 0 7 5 5 5 1 91 
2 0 6 9 6 2 2 99 94 
4 0 3 7 5 5 1 92 
3 0 5 6 4 6 1 94 
7 0 5 4 1 7 1 94 
9 0 6 4 2 6 1 95 
4 0 7 5 6 5 1 96 
3 0 10 3 3 3 1 97 
1 0 4 6 6 10 1 98 
10 0 8 5 5 6 1 104 
9 0 2 5 7 4 1 104 
10 0 7 4 2 4 1 104 
6 0 4 4 7 7 1 104 
10 0 5 7 5 5 1 104 
1 0 5 4 9 6 1 104 
0 0 0 0 0 0 1 543 
0 0 0 0 0 0 1 106 
2 0 0 1 0 0 1 107 
1 0 0 6 0 0 1 108 
5 0 0 5 0 0 2 110 109 
10 0 0 4 0 0 1 112 
7 0 0 8 0 0 1 111 
6 0 0 6 0 0 2 114 113 
10 0 0 4 0 0 2 114 113 
10 0 0 4 0 0 2 115 406 
9 0 0 2 0 0 1 115 
6 0 0 10 0 0 1 116 
0 0 0 0 0 0 5 243 275 287 319 351 
0 0 0 0 0 0 3 118 121 123 
9 1 0 2 1 2 1 119 
2 4 0 7 8 4 1 120 
4 3 0 8 6 7 1 122 
9 6 0 6 7 3 1 122 
9 3 0 4 4 10 1 124 
1 9 0 5 9 3 1 124 
9 7 0 5 3 4 1 125 
9 8 0 6 5 8 1 126 
9 6 0 5 4 7 2 129 127 
9 8 0 9 2 6 1 128 
9 9 0 4 6 6 1 130 
7 4 0 7 6 4 1 130 
4 1 0 3 2 4 1 131 
8 3 0 4 4 7 1 132 
10 9 0 4 3 3 1 133 
7 4 0 3 9 4 2 136 134 
3 3 0 5 3 2 2 138 135 
9 3 0 10 1 5 1 137 
3 4 0 6 7 6 3 157 144 140 
5 3 0 6 6 5 2 157 139 
1 6 0 10 5 10 2 157 141 
2 6 0 5 6 2 1 140 
6 5 0 6 6 4 1 141 
7 5 0 2 7 5 1 142 
10 5 0 4 3 4 1 143 
2 4 0 5 10 6 3 152 151 145 
2 9 0 5 4 10 2 151 145 
7 4 0 5 2 5 1 146 
4 8 0 2 3 1 2 156 147 
1 4 0 3 3 6 1 148 
6 6 0 3 5 7 1 149 
7 2 0 7 5 5 1 150 
5 3 0 3 7 3 1 153 
7 4 0 7 5 4 1 153 
7 7 0 1 5 3 1 153 
4 4 0 4 7 5 1 154 
9 6 0 7 8 4 1 155 
7 8 0 3 5 4 2 158 210 
5 3 0 7 4 8 1 158 
1 3 0 2 4 4 1 158 
0 0 0 0 0 0 1 543 
0 0 0 0 0 0 3 160 177 199 
5 1 1 1 0 1 1 161 
2 10 10 6 0 7 1 162 
1 5 5 6 0 5 1 163 
3 3 5 9 0 5 1 164 
2 5 7 5 0 5 2 185 165 
8 5 5 3 0 5 1 166 
5 7 2 6 0 4 1 167 
2 7 1 3 0 5 1 168 
1 4 2 4 0 9 2 198 169 
2 3 6 4 0 4 1 170 
9 8 5 3 0 5 1 171 
7 3 6 4 0 10 1 172 
3 2 4 4 0 8 2 197 173 
3 2 6 6 0 6 3 196 195 174 
4 8 3 7 0 2 1 175 
3 4 2 9 0 3 1 176 
7 4 2 6 0 7 1 178 
6 7 6 3 0 4 1 178 
8 5 4 6 0 5 1 179 
9 7 4 4 0 4 2 194 180 
8 4 8 8 0 2 3 193 192 181 
9 4 7 6 0 3 1 182 
7 10 7 4 0 6 1 183 
2 7 3 4 0 8 1 184 
8 5 4 3 0 4 1 186 
2 5 8 6 0 6 1 186 
5 3 4 8 0 3 1 187 
9 4 5 3 0 10 1 188 
8 4 5 3 0 2 1 189 
2 6 7 3 0 2 1 190 
4 2 8 6 0 5 1 191 
5 3 9 3 0 4 1 200 
9 6 5 4 0 5 1 200 
10 1 4 7 0 3 2 200 497 
1 8 5 3 0 4 1 200 
2 5 4 6 0 8 1 200 
6 3 6 6 0 3 1 200 
1 7 6 5 0 7 1 200 
7 8 5 5 0 6 1 200 
2 5 4 8 0 5 1 200 
0 0 0 0 0 0 1 543 
0 0 0 0 0 0 3 202 207 209 
2 1 3 1 2 0 1 203 
9 7 8 3 3 0 1 204 
1 9 9 4 7 0 1 205 
7 5 7 7 5 0 1 206 
10 3 6 6 1 0 1 208 
5 3 2 4 7 0 1 208 
8 6 3 3 2 0 2 214 210 
1 7 3 5 3 0 2 214 210 
5 3 4 5 10 0 1 211 
6 2 3 2 3 0 1 212 
2 4 3 5 4 0 1 213 
2 5 7 4 8 0 1 215 
3 6 6 6 5 0 1 215 
4 2 3 8 5 0 1 216 
5 7 6 2 3 0 1 217 
7 5 6 9 8 0 2 225 218 
3 3 4 4 7 0 3 227 219 503 
1 5 3 3 6 0 2 241 220 
5 8 3 3 5 0 1 221 
10 5 5 6 7 0 1 222 
1 5 3 3 4 0 1 223 
2 4 7 4 4 0 1 224 
5 6 4 2 3 0 2 240 226 
6 6 10 7 5 0 2 234 226 
9 10 4 5 6 0 3 239 238 228 
3 4 7 3 4 0 3 239 238 230 
8 3 8 7 7 0 1 229 
1 6 2 6 5 0 1 230 
5 3 6 5 8 0 1 231 
5 4 4 6 6 0 1 232 
7 6 5 8 6 0 1 233 
6 6 7 9 4 0 1 235 
4 3 5 9 5 0 1 235 
1 8 2 4 7 0 1 236 
2 5 6 6 6 0 1 237 
1 4 7 10 2 0 1 242 
4 5 5 5 4 0 1 242 
3 3 4 4 4 0 1 242 
2 7 7 4 3 0 1 242 
9 6 3 3 6 0 1 242 
0 0 0 0 0 0 1 543 
0 0 0 0 0 0 2 244 273 
9 1 0 0 1 2 1 245 
8 4 0 0 7 4 1 246 
6 5 0 0 6 6 1 247 
8 5 0 0 3 5 1 248 
1 5 0 0 7 5 2 272 249 
2 6 0 0 9 4 1 250 
8 3 0 0 3 6 1 251 
3 5 0 0 4 5 5 271 268 261 257 252 
3 3 0 0 5 5 1 253 
10 4 0 0 7 4 2 259 254 
7 6 0 0 5 5 1 255 
2 6 0 0 8 4 1 256 
4 7 0 0 5 10 1 258 
3 7 0 0 5 4 1 259 
10 3 0 0 6 5 1 260 
3 5 0 0 1 3 1 260 
10 5 0 0 5 4 2 270 262 
7 6 0 0 3 4 2 270 264 
5 6 0 0 4 8 1 263 
10 5 0 0 5 5 1 264 
10 3 0 0 3 7 1 265 
6 9 0 0 7 4 1 266 
6 3 0 0 2 7 1 267 
1 6 0 0 8 2 1 269 
3 3 0 0 3 6 1 269 
6 6 0 0 6 6 1 274 
2 4 0 0 5 8 1 274 
1 7 0 0 6 6 1 274 
5 6 0 0 7 2 2 274 511 
2 6 0 0 4 4 1 274 
0 0 0 0 0 0 1 543 
0 0 0 0 0 0 1 276 
2 0 1 0 0 0 2 278 277 
7 0 3 0 0 0 2 285 279 
4 0 3 0 0 0 1 279 
7 0 3 0 0 0 2 281 280 
4 0 8 0 0 0 1 282 
9 0 4 0 0 0 2 282 477 
7 0 9 0 0 0 1 283 
4 0 7 0 0 0 1 284 
2 0 5 0 0 0 1 286 
3 0 7 0 0 0 1 286 
0 0 0 0 0 0 5 383 405 417 439 461 
0 0 0 0 0 0 2 288 317 
9 1 1 3 0 0 1 289 
6 3 8 8 0 0 2 290 536 
3 7 10 5 0 0 1 291 
1 6 2 2 0 0 1 292 
5 6 6 4 0 0 2 316 293 
7 4 4 10 0 0 1 294 
6 6 2 4 0 0 1 295 
9 2 8 6 0 0 5 313 308 301 300 296 
1 5 5 3 0 0 1 297 
10 5 3 3 0 0 2 303 298 
10 3 5 2 0 0 1 299 
7 6 4 2 0 0 1 302 
6 8 5 4 0 0 1 303 
9 6 4 4 0 0 1 302 
6 3 3 6 0 0 1 304 
2 6 5 3 0 0 1 304 
7 6 7 7 0 0 1 305 
7 4 8 10 0 0 2 315 306 
8 3 10 8 0 0 1 307 
5 5 6 3 0 0 1 309 
9 7 6 2 0 0 1 309 
7 4 5 9 0 0 1 310 
10 4 4 4 0 0 1 311 
10 6 4 2 0 0 1 312 
5 7 2 3 0 0 1 314 
3 2 6 7 0 0 1 314 
10 7 6 6 0 0 1 318 
5 7 4 5 0 0 1 318 
3 5 4 8 0 0 1 318 
2 6 3 7 0 0 1 318 
0 0 0 0 0 0 1 543 
0 0 0 0 0 0 2 320 323 
10 0 1 1 0 2 1 321 
7 0 4 4 0 8 1 322 
8 0 3 5 0 5 1 324 
6 0 4 5 0 4 1 324 
5 0 4 5 0 6 1 325 
7 0 6 6 0 6 2 329 326 
7 0 8 5 0 5 1 327 
6 0 3 4 0 2 1 328 
5 0 2 10 0 5 3 333 332 330 
10 0 3 5 0 5 1 330 
3 0 5 2 0 2 2 334 331 
7 0 4 6 0 3 3 338 336 335 
5 0 3 5 0 6 4 338 336 335 434 
2 0 5 2 0 6 3 338 336 335 
4 0 4 8 0 3 1 335 
10 0 9 4 0 2 1 337 
3 0 5 5 0 7 1 337 
9 0 6 5 0 10 1 339 
3 0 6 8 0 6 1 339 
8 0 10 3 0 5 1 340 
6 0 6 2 0 6 1 341 
2 0 6 7 0 8 2 345 342 
5 0 3 6 0 5 1 343 
9 0 3 10 0 8 1 344 
1 0 7 6 0 2 1 346 
4 0 4 2 0 4 1 346 
6 0 5 5 0 9 1 347 
6 0 8 5 0 3 1 348 
2 0 7 3 0 2 1 349 
7 0 6 6 0 5 1 350 
0 0 0 0 0 0 1 543 
0 0 0 0 0 0 8 352 375 376 377 378 379 380 381 
6 0 1 2 1 0 1 353 
6 0 7 3 5 0 1 354 
6 0 7 5 8 0 1 355 
10 0 6 4 3 0 1 356 
5 0 2 4 7 0 2 374 357 
3 0 4 7 3 0 1 358 
8 0 7 3 4 0 1 359 
5 0 4 8 4 0 1 360 
7 0 2 3 4 0 1 361 
10 0 4 10 5 0 1 362 
3 0 3 4 4 0 2 363 458 
8 0 2 2 8 0 1 364 
4 0 6 6 6 0 1 365 
1 0 6 6 8 0 1 366 
8 0 7 1 8 0 1 367 
3 0 7 7 8 0 1 368 
2 0 5 3 6 0 1 369 
2 0 3 5 5 0 1 370 
5 0 5 8 5 0 1 371 
7 0 4 6 3 0 1 372 
2 0 7 8 5 0 1 373 
5 0 4 7 3 0 1 382 
8 0 7 3 6 0 1 382 
9 0 7 3 5 0 1 382 
5 0 5 4 5 0 1 382 
2 0 5 6 5 0 1 382 
5 0 3 6 6 0 1 382 
1 0 7 5 2 0 1 382 
1 0 8 8 4 0 1 382 
3 0 5 3 4 0 1 382 
0 0 0 0 0 0 1 543 
0 0 0 0 0 0 3 384 402 403 
5 0 0 0 4 1 2 395 385 
4 0 0 0 3 6 2 401 386 
7 0 0 0 7 3 2 387 522 
7 0 0 0 6 3 1 388 
8 0 0 0 5 4 1 389 
6 0 0 0 5 2 2 400 390 
1 0 0 0 4 8 1 391 
1 0 0 0 5 8 1 392 
4 0 0 0 10 8 1 393 
6 0 0 0 5 8 1 394 
9 0 0 0 4 6 1 396 
7 0 0 0 4 4 1 396 
10 0 0 0 2 7 1 397 
6 0 0 0 4 4 1 398 
9 0 0 0 6 3 1 399 
6 0 0 0 7 6 1 404 
1 0 0 0 4 4 1 404 
4 0 0 0 5 2 1 404 
1 0 0 0 6 7 1 404 
1 0 0 0 4 6 1 404 
0 0 0 0 0 0 1 543 
0 0 0 0 0 0 2 406 408 
5 0 0 0 0 1 2 412 407 
8 0 0 0 0 4 2 415 409 
3 0 0 0 0 5 4 415 412 411 533 
2 0 0 0 0 4 1 410 
1 0 0 0 0 6 1 411 
4 0 0 0 0 9 1 413 
3 0 0 0 0 8 1 413 
5 0 0 0 0 6 1 414 
10 0 0 0 0 4 1 416 
3 0 0 0 0 3 1 416 
0 0 0 0 0 0 5 483 495 507 519 531 
0 0 0 0 0 0 3 418 426 432 
10 1 1 0 0 0 3 437 434 419 
6 3 6 0 0 0 2 420 537 
7 4 7 0 0 0 1 421 
6 5 5 0 0 0 1 422 
1 4 3 0 0 0 1 423 
3 6 5 0 0 0 1 424 
1 5 2 0 0 0 1 425 
2 7 7 0 0 0 2 436 427 
2 6 4 0 0 0 2 436 427 
8 3 7 0 0 0 1 428 
8 7 6 0 0 0 1 429 
6 6 5 0 0 0 1 430 
9 6 5 0 0 0 1 431 
7 6 5 0 0 0 1 433 
7 5 3 0 0 0 1 434 
7 6 4 0 0 0 1 435 
2 4 7 0 0 0 1 435 
10 2 8 0 0 0 1 438 
3 6 6 0 0 0 1 438 
7 8 4 0 0 0 1 438 
0 0 0 0 0 0 1 543 
0 0 0 0 0 0 3 440 449 459 
1 1 0 0 0 1 3 458 452 441 
4 5 0 0 0 3 1 442 
9 8 0 0 0 5 1 443 
2 8 0 0 0 8 1 444 
2 6 0 0 0 6 1 445 
9 4 0 0 0 8 1 446 
7 2 0 0 0 4 1 447 
2 5 0 0 0 2 1 448 
5 7 0 0 0 8 2 457 450 
2 5 0 0 0 3 1 450 
3 6 0 0 0 7 2 451 535 
10 3 0 0 0 6 1 453 
7 4 0 0 0 4 1 453 
8 7 0 0 0 3 1 454 
8 4 0 0 0 8 1 455 
2 3 0 0 0 4 1 456 
9 6 0 0 0 1 1 460 
2 6 0 0 0 6 1 460 
7 4 0 0 0 8 1 460 
8 6 0 0 0 5 1 460 
0 0 0 0 0 0 1 543 
0 0 0 0 0 0 2 462 477 
6 0 0 0 3 1 3 481 469 463 
1 0 0 0 6 1 1 464 
9 0 0 0 8 5 1 465 
3 0 0 0 10 5 2 466 529 
5 0 0 0 6 7 1 467 
1 0 0 0 3 7 1 468 
10 0 0 0 4 4 2 480 470 
2 0 0 0 3 3 2 480 472 
5 0 0 0 10 3 1 471 
2 0 0 0 8 7 1 472 
9 0 0 0 4 6 2 479 473 
7 0 0 0 3 6 1 474 
10 0 0 0 6 5 1 475 
3 0 0 0 2 7 1 476 
1 0 0 0 3 4 1 478 
10 0 0 0 4 4 1 479 
5 0 0 0 2 9 1 482 
1 0 0 0 5 6 1 482 
2 0 0 0 4 5 1 482 
2 0 0 0 6 5 1 482 
0 0 0 0 0 0 1 543 
0 0 0 0 0 0 2 484 485 
9 0 0 1 0 0 2 490 486 
2 0 0 5 0 0 3 490 487 529 
5 0 0 9 0 0 1 487 
10 0 0 4 0 0 1 488 
3 0 0 5 0 0 1 489 
6 0 0 5 0 0 2 493 491 
10 0 0 9 0 0 2 493 491 
5 0 0 5 0 0 1 492 
5 0 0 3 0 0 1 494 
2 0 0 4 0 0 1 494 
0 0 0 0 0 0 1 543 
0 0 0 0 0 0 2 496 500 
10 1 0 0 0 0 1 497 
4 6 0 0 0 0 1 498 
4 9 0 0 0 0 1 499 
4 2 0 0 0 0 3 505 504 501 
8 7 0 0 0 0 4 505 504 501 539 
10 6 0 0 0 0 1 502 
3 3 0 0 0 0 1 503 
1 5 0 0 0 0 1 506 
5 8 0 0 0 0 1 506 
1 3 0 0 0 0 1 506 
0 0 0 0 0 0 1 543 
0 0 0 0 0 0 1 508 
10 0 0 0 0 1 2 517 509 
7 0 0 0 0 6 1 510 
2 0 0 0 0 8 1 511 
2 0 0 0 0 4 2 514 512 
7 0 0 0 0 7 1 513 
6 0 0 0 0 6 1 515 
5 0 0 0 0 6 1 516 
3 0 0 0 0 3 1 518 
9 0 0 0 0 5 2 518 523 
2 0 0 0 0 4 1 518 
0 0 0 0 0 0 1 543 
0 0 0 0 0 0 1 520 
4 1 0 0 0 0 2 524 521 
9 5 0 0 0 0 1 522 
1 6 0 0 0 0 2 529 523 
5 4 0 0 0 0 1 525 
1 3 0 0 0 0 1 525 
3 7 0 0 0 0 2 526 533 
6 7 0 0 0 0 2 528 527 
2 7 0 0 0 0 1 530 
9 6 0 0 0 0 1 530 
4 4 0 0 0 0 1 530 
0 0 0 0 0 0 1 543 
0 0 0 0 0 0 1 532 
7 0 2 0 0 0 1 533 
5 0 6 0 0 0 2 535 534 
4 0 5 0 0 0 2 538 536 
1 0 6 0 0 0 2 538 536 
7 0 3 0 0 0 1 537 
4 0 6 0 0 0 1 539 
3 0 3 0 0 0 1 539 
8 0 4 0 0 0 2 541 540 
4 0 5 0 0 0 1 542 
3 0 10 0 0 0 1 542 
0 0 0 0 0 0 1 543 
0 0 0 0 0 0 0 
